GLPSOL--GLPK LP/MIP Solver 5.0
Parameter(s) specified in the command line:
 --cpxlp --first inputs/new_tr/order/triang7_0_down_left_input.lp -o solutions/new_tr/triang7_0_down_left_input.lp
Reading problem data from 'inputs/new_tr/order/triang7_0_down_left_input.lp'...
inputs/new_tr/order/triang7_0_down_left_input.lp:4307: warning: lower bound of variable 'm_0_0' redefined
inputs/new_tr/order/triang7_0_down_left_input.lp:4307: warning: upper bound of variable 'm_0_0' redefined
3991 rows, 1597 columns, 11607 non-zeros
1597 integer variables, 1288 of which are binary
5875 lines were read
GLPK Integer Optimizer 5.0
3991 rows, 1597 columns, 11607 non-zeros
1597 integer variables, 1288 of which are binary
Preprocessing...
182 hidden packing inequaliti(es) were detected
22 hidden covering inequaliti(es) were detected
395 constraint coefficient(s) were reduced
2268 rows, 842 columns, 6148 non-zeros
842 integer variables, 814 of which are binary
Scaling...
 A: min|aij| =  1.000e+00  max|aij| =  9.900e+01  ratio =  9.900e+01
GM: min|aij| =  4.387e-01  max|aij| =  2.280e+00  ratio =  5.196e+00
EQ: min|aij| =  1.925e-01  max|aij| =  1.000e+00  ratio =  5.196e+00
2N: min|aij| =  1.250e-01  max|aij| =  1.438e+00  ratio =  1.150e+01
Constructing initial basis...
Size of triangular part is 2072
Solving LP relaxation...
GLPK Simplex Optimizer 5.0
2268 rows, 842 columns, 6148 non-zeros
      0: obj =   2.320000000e+02 inf =   2.499e+02 (306)
    715: obj =   4.186639888e+02 inf =   4.848e-14 (0) 6
*  1122: obj =   3.050000565e+02 inf =   5.482e-16 (0) 4
OPTIMAL LP SOLUTION FOUND
Integer optimization begins...
Long-step dual simplex will be used
+  1122: mip =     not found yet >=              -inf        (1; 0)
+  5579: >>>>>   4.050000000e+02 >=   3.060000000e+02  24.4% (41; 1)
+ 39104: mip =   4.050000000e+02 >=   3.060000000e+02  24.4% (134; 34)
+ 74159: mip =   4.050000000e+02 >=   3.060000000e+02  24.4% (223; 55)
+107235: >>>>>   3.650000000e+02 >=   3.060000000e+02  16.2% (305; 76)
+143119: mip =   3.650000000e+02 >=   3.070000000e+02  15.9% (310; 205)
+179583: mip =   3.650000000e+02 >=   3.080000000e+02  15.6% (387; 249)
+198261: >>>>>   3.640000000e+02 >=   3.080000000e+02  15.4% (455; 269)
+236447: mip =   3.640000000e+02 >=   3.080000000e+02  15.4% (562; 327)
+275668: mip =   3.640000000e+02 >=   3.080000000e+02  15.4% (653; 373)
+310693: mip =   3.640000000e+02 >=   3.090000000e+02  15.1% (712; 400)
+315372: >>>>>   3.620000000e+02 >=   3.090000000e+02  14.6% (731; 402)
+354393: mip =   3.620000000e+02 >=   3.090000000e+02  14.6% (832; 480)
+392903: mip =   3.620000000e+02 >=   3.090000000e+02  14.6% (922; 516)
+429844: mip =   3.620000000e+02 >=   3.090000000e+02  14.6% (1028; 546)
Time used: 60.1 secs.  Memory used: 11.7 Mb.
+466867: mip =   3.620000000e+02 >=   3.090000000e+02  14.6% (1123; 567)
+505839: mip =   3.620000000e+02 >=   3.100000000e+02  14.4% (1211; 612)
+543734: mip =   3.620000000e+02 >=   3.100000000e+02  14.4% (1297; 636)
+580797: mip =   3.620000000e+02 >=   3.100000000e+02  14.4% (1383; 675)
+619872: mip =   3.620000000e+02 >=   3.110000000e+02  14.1% (1510; 722)
+658054: mip =   3.620000000e+02 >=   3.110000000e+02  14.1% (1590; 762)
+695904: mip =   3.620000000e+02 >=   3.120000000e+02  13.8% (1672; 794)
+736000: mip =   3.620000000e+02 >=   3.120000000e+02  13.8% (1813; 834)
+775922: mip =   3.620000000e+02 >=   3.120000000e+02  13.8% (1948; 886)
+815320: mip =   3.620000000e+02 >=   3.120000000e+02  13.8% (2051; 929)
+852514: mip =   3.620000000e+02 >=   3.120000000e+02  13.8% (2115; 961)
+892741: mip =   3.620000000e+02 >=   3.130000000e+02  13.5% (2181; 1008)
Time used: 120.1 secs.  Memory used: 21.2 Mb.
+933012: mip =   3.620000000e+02 >=   3.130000000e+02  13.5% (2288; 1060)
+969697: mip =   3.620000000e+02 >=   3.130000000e+02  13.5% (2334; 1094)
+1003155: mip =   3.620000000e+02 >=   3.130000000e+02  13.5% (2388; 1118)
+1040011: mip =   3.620000000e+02 >=   3.140000000e+02  13.3% (2512; 1153)
+1078824: mip =   3.620000000e+02 >=   3.140000000e+02  13.3% (2599; 1194)
+1115722: mip =   3.620000000e+02 >=   3.140000000e+02  13.3% (2665; 1222)
+1153158: mip =   3.620000000e+02 >=   3.140000000e+02  13.3% (2708; 1261)
+1190509: mip =   3.620000000e+02 >=   3.150000000e+02  13.0% (2770; 1309)
+1231846: mip =   3.620000000e+02 >=   3.150000000e+02  13.0% (2908; 1365)
+1271670: mip =   3.620000000e+02 >=   3.150000000e+02  13.0% (2999; 1407)
+1309194: mip =   3.620000000e+02 >=   3.150000000e+02  13.0% (3042; 1446)
Time used: 180.2 secs.  Memory used: 30.3 Mb.
+1346040: mip =   3.620000000e+02 >=   3.160000000e+02  12.7% (3064; 1500)
+1384653: mip =   3.620000000e+02 >=   3.160000000e+02  12.7% (3146; 1541)
+1420810: mip =   3.620000000e+02 >=   3.160000000e+02  12.7% (3182; 1585)
+1459380: mip =   3.620000000e+02 >=   3.170000000e+02  12.4% (3262; 1629)
+1500438: mip =   3.620000000e+02 >=   3.170000000e+02  12.4% (3353; 1710)
+1535844: mip =   3.620000000e+02 >=   3.170000000e+02  12.4% (3395; 1732)
+1573515: mip =   3.620000000e+02 >=   3.180000000e+02  12.2% (3466; 1773)
+1610631: mip =   3.620000000e+02 >=   3.180000000e+02  12.2% (3534; 1814)
+1647797: mip =   3.620000000e+02 >=   3.190000000e+02  11.9% (3575; 1848)
+1684992: mip =   3.620000000e+02 >=   3.190000000e+02  11.9% (3614; 1910)
+1724047: mip =   3.620000000e+02 >=   3.200000000e+02  11.6% (3684; 1978)
+1761443: mip =   3.620000000e+02 >=   3.210000000e+02  11.3% (3692; 2043)
Time used: 240.2 secs.  Memory used: 39.3 Mb.
+1800903: mip =   3.620000000e+02 >=   3.210000000e+02  11.3% (3754; 2111)
+1839871: mip =   3.620000000e+02 >=   3.220000000e+02  11.0% (3824; 2166)
+1877772: mip =   3.620000000e+02 >=   3.220000000e+02  11.0% (3930; 2212)
+1913974: mip =   3.620000000e+02 >=   3.220000000e+02  11.0% (4002; 2241)
+1950975: mip =   3.620000000e+02 >=   3.220000000e+02  11.0% (4051; 2279)
+1985966: mip =   3.620000000e+02 >=   3.220000000e+02  11.0% (4157; 2313)
+2021095: mip =   3.620000000e+02 >=   3.230000000e+02  10.8% (4253; 2350)
+2058972: mip =   3.620000000e+02 >=   3.230000000e+02  10.8% (4331; 2394)
+2095818: mip =   3.620000000e+02 >=   3.230000000e+02  10.8% (4397; 2434)
+2132156: mip =   3.620000000e+02 >=   3.230000000e+02  10.8% (4487; 2473)
+2170057: mip =   3.620000000e+02 >=   3.230000000e+02  10.8% (4576; 2517)
+2207541: mip =   3.620000000e+02 >=   3.240000000e+02  10.5% (4669; 2572)
Time used: 300.2 secs.  Memory used: 47.8 Mb.
+2247088: mip =   3.620000000e+02 >=   3.240000000e+02  10.5% (4833; 2654)
+2286785: mip =   3.620000000e+02 >=   3.240000000e+02  10.5% (5005; 2727)
+2325061: mip =   3.620000000e+02 >=   3.240000000e+02  10.5% (5215; 2790)
+2361853: mip =   3.620000000e+02 >=   3.240000000e+02  10.5% (5337; 2841)
+2398686: mip =   3.620000000e+02 >=   3.240000000e+02  10.5% (5479; 2894)
+2436886: mip =   3.620000000e+02 >=   3.240000000e+02  10.5% (5552; 2937)
+2474070: mip =   3.620000000e+02 >=   3.240000000e+02  10.5% (5619; 2961)
+2510546: mip =   3.620000000e+02 >=   3.240000000e+02  10.5% (5693; 2984)
+2548124: mip =   3.620000000e+02 >=   3.240000000e+02  10.5% (5777; 3003)
+2584655: mip =   3.620000000e+02 >=   3.240000000e+02  10.5% (5863; 3023)
+2620701: mip =   3.620000000e+02 >=   3.240000000e+02  10.5% (5924; 3039)
+2657248: mip =   3.620000000e+02 >=   3.240000000e+02  10.5% (6014; 3067)
Time used: 360.2 secs.  Memory used: 55.2 Mb.
+2694211: mip =   3.620000000e+02 >=   3.240000000e+02  10.5% (6110; 3091)
+2730193: mip =   3.620000000e+02 >=   3.240000000e+02  10.5% (6172; 3105)
+2766081: mip =   3.620000000e+02 >=   3.240000000e+02  10.5% (6240; 3128)
+2802655: mip =   3.620000000e+02 >=   3.240000000e+02  10.5% (6310; 3149)
+2838694: mip =   3.620000000e+02 >=   3.240000000e+02  10.5% (6401; 3174)
+2876330: mip =   3.620000000e+02 >=   3.240000000e+02  10.5% (6521; 3217)
+2914314: mip =   3.620000000e+02 >=   3.250000000e+02  10.2% (6607; 3283)
+2953954: mip =   3.620000000e+02 >=   3.250000000e+02  10.2% (6704; 3386)
+2992223: mip =   3.620000000e+02 >=   3.250000000e+02  10.2% (6813; 3471)
+3029467: mip =   3.620000000e+02 >=   3.250000000e+02  10.2% (6897; 3538)
+3067688: mip =   3.620000000e+02 >=   3.250000000e+02  10.2% (6991; 3591)
+3105588: mip =   3.620000000e+02 >=   3.250000000e+02  10.2% (7091; 3641)
Time used: 420.2 secs.  Memory used: 63.1 Mb.
+3143104: mip =   3.620000000e+02 >=   3.250000000e+02  10.2% (7168; 3698)
+3180865: mip =   3.620000000e+02 >=   3.250000000e+02  10.2% (7239; 3742)
+3218513: mip =   3.620000000e+02 >=   3.250000000e+02  10.2% (7308; 3804)
+3256105: mip =   3.620000000e+02 >=   3.250000000e+02  10.2% (7377; 3855)
+3294572: mip =   3.620000000e+02 >=   3.250000000e+02  10.2% (7463; 3904)
+3331955: mip =   3.620000000e+02 >=   3.250000000e+02  10.2% (7545; 3955)
+3368921: mip =   3.620000000e+02 >=   3.250000000e+02  10.2% (7611; 3992)
+3406663: mip =   3.620000000e+02 >=   3.250000000e+02  10.2% (7692; 4041)
+3444193: mip =   3.620000000e+02 >=   3.250000000e+02  10.2% (7753; 4090)
+3481627: mip =   3.620000000e+02 >=   3.250000000e+02  10.2% (7804; 4138)
+3519316: mip =   3.620000000e+02 >=   3.250000000e+02  10.2% (7874; 4178)
+3555123: mip =   3.620000000e+02 >=   3.250000000e+02  10.2% (7929; 4211)
Time used: 480.3 secs.  Memory used: 69.7 Mb.
+3592309: mip =   3.620000000e+02 >=   3.250000000e+02  10.2% (8002; 4247)
+3628750: mip =   3.620000000e+02 >=   3.250000000e+02  10.2% (8060; 4284)
+3665375: mip =   3.620000000e+02 >=   3.250000000e+02  10.2% (8117; 4322)
+3702422: mip =   3.620000000e+02 >=   3.250000000e+02  10.2% (8154; 4363)
+3739875: mip =   3.620000000e+02 >=   3.250000000e+02  10.2% (8214; 4402)
+3776073: mip =   3.620000000e+02 >=   3.250000000e+02  10.2% (8281; 4435)
+3813998: mip =   3.620000000e+02 >=   3.260000000e+02   9.9% (8386; 4477)
+3852688: mip =   3.620000000e+02 >=   3.260000000e+02   9.9% (8534; 4552)
+3889583: mip =   3.620000000e+02 >=   3.260000000e+02   9.9% (8634; 4611)
+3926263: mip =   3.620000000e+02 >=   3.260000000e+02   9.9% (8740; 4653)
+3965068: mip =   3.620000000e+02 >=   3.260000000e+02   9.9% (8862; 4732)
+4001875: mip =   3.620000000e+02 >=   3.260000000e+02   9.9% (8964; 4777)
Time used: 540.3 secs.  Memory used: 77.4 Mb.
+4039274: mip =   3.620000000e+02 >=   3.260000000e+02   9.9% (9064; 4827)
+4077025: mip =   3.620000000e+02 >=   3.260000000e+02   9.9% (9171; 4893)
+4114454: mip =   3.620000000e+02 >=   3.260000000e+02   9.9% (9222; 4948)
+4152027: mip =   3.620000000e+02 >=   3.260000000e+02   9.9% (9296; 5005)
+4188521: mip =   3.620000000e+02 >=   3.260000000e+02   9.9% (9347; 5071)
+4223870: mip =   3.620000000e+02 >=   3.260000000e+02   9.9% (9392; 5110)
+4261535: mip =   3.620000000e+02 >=   3.270000000e+02   9.7% (9457; 5165)
+4303470: mip =   3.620000000e+02 >=   3.270000000e+02   9.7% (9562; 5251)
+4344813: mip =   3.620000000e+02 >=   3.270000000e+02   9.7% (9662; 5322)
+4386322: mip =   3.620000000e+02 >=   3.270000000e+02   9.7% (9773; 5397)
+4427475: mip =   3.620000000e+02 >=   3.270000000e+02   9.7% (9867; 5461)
+4468290: mip =   3.620000000e+02 >=   3.270000000e+02   9.7% (9970; 5528)
Time used: 600.3 secs.  Memory used: 85.9 Mb.
+4509339: mip =   3.620000000e+02 >=   3.270000000e+02   9.7% (10069; 5600)
+4550299: mip =   3.620000000e+02 >=   3.270000000e+02   9.7% (10175; 5671)
+4590309: mip =   3.620000000e+02 >=   3.270000000e+02   9.7% (10268; 5741)
+4630330: mip =   3.620000000e+02 >=   3.270000000e+02   9.7% (10355; 5798)
+4670367: mip =   3.620000000e+02 >=   3.270000000e+02   9.7% (10454; 5846)
+4710660: mip =   3.620000000e+02 >=   3.270000000e+02   9.7% (10545; 5908)
+4750980: mip =   3.620000000e+02 >=   3.270000000e+02   9.7% (10648; 5969)
+4790517: mip =   3.620000000e+02 >=   3.270000000e+02   9.7% (10742; 6022)
+4830469: mip =   3.620000000e+02 >=   3.270000000e+02   9.7% (10826; 6078)
+4869746: mip =   3.620000000e+02 >=   3.270000000e+02   9.7% (10918; 6134)
+4908811: mip =   3.620000000e+02 >=   3.270000000e+02   9.7% (11036; 6180)
+4948460: mip =   3.620000000e+02 >=   3.270000000e+02   9.7% (11140; 6244)
Time used: 660.4 secs.  Memory used: 94.2 Mb.
+4987490: mip =   3.620000000e+02 >=   3.270000000e+02   9.7% (11245; 6281)
+5025762: mip =   3.620000000e+02 >=   3.270000000e+02   9.7% (11360; 6322)
+5065631: mip =   3.620000000e+02 >=   3.270000000e+02   9.7% (11451; 6370)
+5104629: mip =   3.620000000e+02 >=   3.270000000e+02   9.7% (11540; 6419)
+5143704: mip =   3.620000000e+02 >=   3.270000000e+02   9.7% (11630; 6462)
+5182412: mip =   3.620000000e+02 >=   3.270000000e+02   9.7% (11722; 6513)
+5220983: mip =   3.620000000e+02 >=   3.270000000e+02   9.7% (11813; 6561)
+5259998: mip =   3.620000000e+02 >=   3.270000000e+02   9.7% (11896; 6613)
+5299377: mip =   3.620000000e+02 >=   3.270000000e+02   9.7% (11997; 6661)
+5338695: mip =   3.620000000e+02 >=   3.270000000e+02   9.7% (12102; 6721)
+5376070: mip =   3.620000000e+02 >=   3.270000000e+02   9.7% (12181; 6760)
+5414282: mip =   3.620000000e+02 >=   3.270000000e+02   9.7% (12256; 6798)
Time used: 720.5 secs.  Memory used: 101.9 Mb.
+5453946: mip =   3.620000000e+02 >=   3.270000000e+02   9.7% (12352; 6839)
+5492756: mip =   3.620000000e+02 >=   3.270000000e+02   9.7% (12447; 6883)
+5532169: mip =   3.620000000e+02 >=   3.270000000e+02   9.7% (12529; 6922)
+5569816: mip =   3.620000000e+02 >=   3.270000000e+02   9.7% (12604; 6968)
+5607643: mip =   3.620000000e+02 >=   3.270000000e+02   9.7% (12674; 7022)
+5646120: mip =   3.620000000e+02 >=   3.270000000e+02   9.7% (12772; 7077)
+5684390: mip =   3.620000000e+02 >=   3.270000000e+02   9.7% (12865; 7132)
+5721098: mip =   3.620000000e+02 >=   3.270000000e+02   9.7% (12935; 7197)
+5758920: mip =   3.620000000e+02 >=   3.270000000e+02   9.7% (13004; 7238)
+5795091: mip =   3.620000000e+02 >=   3.270000000e+02   9.7% (13055; 7285)
+5829924: mip =   3.620000000e+02 >=   3.270000000e+02   9.7% (13062; 7376)
+5868087: mip =   3.620000000e+02 >=   3.270000000e+02   9.7% (13136; 7437)
Time used: 780.6 secs.  Memory used: 109.3 Mb.
+5904121: mip =   3.620000000e+02 >=   3.270000000e+02   9.7% (13162; 7497)
+5939472: mip =   3.620000000e+02 >=   3.270000000e+02   9.7% (13211; 7539)
+5976964: mip =   3.620000000e+02 >=   3.280000000e+02   9.4% (13302; 7630)
+6014848: mip =   3.620000000e+02 >=   3.280000000e+02   9.4% (13390; 7728)
+6052957: mip =   3.620000000e+02 >=   3.280000000e+02   9.4% (13474; 7831)
+6092652: mip =   3.620000000e+02 >=   3.280000000e+02   9.4% (13601; 7913)
+6130717: mip =   3.620000000e+02 >=   3.280000000e+02   9.4% (13665; 8015)
+6167984: mip =   3.620000000e+02 >=   3.280000000e+02   9.4% (13792; 8082)
+6204257: mip =   3.620000000e+02 >=   3.280000000e+02   9.4% (13864; 8148)
+6241619: mip =   3.620000000e+02 >=   3.280000000e+02   9.4% (13921; 8238)
+6278531: mip =   3.620000000e+02 >=   3.280000000e+02   9.4% (14012; 8310)
+6315330: mip =   3.620000000e+02 >=   3.280000000e+02   9.4% (14094; 8403)
Time used: 840.6 secs.  Memory used: 118.9 Mb.
+6352017: mip =   3.620000000e+02 >=   3.280000000e+02   9.4% (14159; 8487)
+6389102: mip =   3.620000000e+02 >=   3.280000000e+02   9.4% (14221; 8552)
+6425203: mip =   3.620000000e+02 >=   3.280000000e+02   9.4% (14258; 8619)
+6460529: mip =   3.620000000e+02 >=   3.280000000e+02   9.4% (14301; 8660)
+6497020: mip =   3.620000000e+02 >=   3.280000000e+02   9.4% (14317; 8726)
+6533404: mip =   3.620000000e+02 >=   3.280000000e+02   9.4% (14359; 8791)
+6568813: mip =   3.620000000e+02 >=   3.290000000e+02   9.1% (14415; 8842)
+6607826: mip =   3.620000000e+02 >=   3.290000000e+02   9.1% (14488; 8946)
+6644776: mip =   3.620000000e+02 >=   3.290000000e+02   9.1% (14567; 9029)
+6682320: mip =   3.620000000e+02 >=   3.290000000e+02   9.1% (14642; 9131)
+6718787: mip =   3.620000000e+02 >=   3.290000000e+02   9.1% (14722; 9217)
+6754629: mip =   3.620000000e+02 >=   3.290000000e+02   9.1% (14801; 9301)
Time used: 900.7 secs.  Memory used: 127.7 Mb.
+6790729: mip =   3.620000000e+02 >=   3.290000000e+02   9.1% (14841; 9368)
+6826173: mip =   3.620000000e+02 >=   3.290000000e+02   9.1% (14883; 9436)
+6861719: mip =   3.620000000e+02 >=   3.290000000e+02   9.1% (14948; 9502)
+6897053: mip =   3.620000000e+02 >=   3.290000000e+02   9.1% (14992; 9552)
+6933347: mip =   3.620000000e+02 >=   3.290000000e+02   9.1% (15038; 9617)
+6970393: mip =   3.620000000e+02 >=   3.290000000e+02   9.1% (15084; 9681)
+7006656: mip =   3.620000000e+02 >=   3.290000000e+02   9.1% (15135; 9749)
+7042003: mip =   3.620000000e+02 >=   3.290000000e+02   9.1% (15161; 9816)
+7077721: mip =   3.620000000e+02 >=   3.290000000e+02   9.1% (15223; 9877)
+7113500: mip =   3.620000000e+02 >=   3.290000000e+02   9.1% (15270; 9932)
+7148835: mip =   3.620000000e+02 >=   3.290000000e+02   9.1% (15293; 10002)
Time used: 960.7 secs.  Memory used: 134.8 Mb.
+7185069: mip =   3.620000000e+02 >=   3.290000000e+02   9.1% (15380; 10045)
+7219806: mip =   3.620000000e+02 >=   3.290000000e+02   9.1% (15372; 10134)
+7254469: mip =   3.620000000e+02 >=   3.300000000e+02   8.8% (15413; 10203)
+7294113: mip =   3.620000000e+02 >=   3.300000000e+02   8.8% (15508; 10310)
+7330243: mip =   3.620000000e+02 >=   3.300000000e+02   8.8% (15526; 10418)
+7367307: mip =   3.620000000e+02 >=   3.300000000e+02   8.8% (15548; 10558)
+7403294: mip =   3.620000000e+02 >=   3.300000000e+02   8.8% (15582; 10634)
+7439647: mip =   3.620000000e+02 >=   3.300000000e+02   8.8% (15620; 10734)
+7475359: mip =   3.620000000e+02 >=   3.300000000e+02   8.8% (15647; 10838)
+7511272: mip =   3.620000000e+02 >=   3.300000000e+02   8.8% (15668; 10935)
+7546511: mip =   3.620000000e+02 >=   3.300000000e+02   8.8% (15669; 11069)
+7582078: mip =   3.620000000e+02 >=   3.300000000e+02   8.8% (15665; 11171)
Time used: 1020.8 secs.  Memory used: 141.9 Mb.
+7617502: mip =   3.620000000e+02 >=   3.300000000e+02   8.8% (15707; 11234)
+7652091: mip =   3.620000000e+02 >=   3.300000000e+02   8.8% (15709; 11340)
+7687686: mip =   3.620000000e+02 >=   3.300000000e+02   8.8% (15749; 11408)
+7721978: mip =   3.620000000e+02 >=   3.300000000e+02   8.8% (15758; 11523)
+7755322: mip =   3.620000000e+02 >=   3.300000000e+02   8.8% (15723; 11653)
+7793433: mip =   3.620000000e+02 >=   3.310000000e+02   8.6% (15785; 11731)
+7833527: mip =   3.620000000e+02 >=   3.310000000e+02   8.6% (15882; 11822)
+7870971: mip =   3.620000000e+02 >=   3.310000000e+02   8.6% (15915; 11925)
+7908616: mip =   3.620000000e+02 >=   3.310000000e+02   8.6% (15957; 12020)
+7949609: mip =   3.620000000e+02 >=   3.310000000e+02   8.6% (16031; 12084)
+7985804: mip =   3.620000000e+02 >=   3.310000000e+02   8.6% (16040; 12205)
+8021396: mip =   3.620000000e+02 >=   3.310000000e+02   8.6% (16048; 12318)
Time used: 1080.8 secs.  Memory used: 149.9 Mb.
+8056660: mip =   3.620000000e+02 >=   3.310000000e+02   8.6% (16052; 12425)
+8093674: mip =   3.620000000e+02 >=   3.310000000e+02   8.6% (16067; 12538)
+8129039: mip =   3.620000000e+02 >=   3.310000000e+02   8.6% (16065; 12673)
+8165854: mip =   3.620000000e+02 >=   3.310000000e+02   8.6% (16091; 12783)
+8200665: mip =   3.620000000e+02 >=   3.310000000e+02   8.6% (16111; 12903)
+8235640: mip =   3.620000000e+02 >=   3.310000000e+02   8.6% (16093; 13051)
+8270848: mip =   3.620000000e+02 >=   3.310000000e+02   8.6% (16080; 13184)
+8304006: mip =   3.620000000e+02 >=   3.310000000e+02   8.6% (16053; 13292)
+8342052: mip =   3.620000000e+02 >=   3.320000000e+02   8.3% (16107; 13397)
+8379518: mip =   3.620000000e+02 >=   3.320000000e+02   8.3% (16188; 13506)
+8417269: mip =   3.620000000e+02 >=   3.320000000e+02   8.3% (16240; 13618)
+8455155: mip =   3.620000000e+02 >=   3.320000000e+02   8.3% (16306; 13742)
Time used: 1140.8 secs.  Memory used: 157.2 Mb.
+8492928: mip =   3.620000000e+02 >=   3.320000000e+02   8.3% (16378; 13848)
+8531801: mip =   3.620000000e+02 >=   3.320000000e+02   8.3% (16487; 13945)
+8569279: mip =   3.620000000e+02 >=   3.320000000e+02   8.3% (16563; 14081)
+8607948: mip =   3.620000000e+02 >=   3.320000000e+02   8.3% (16696; 14159)
+8644728: mip =   3.620000000e+02 >=   3.320000000e+02   8.3% (16765; 14265)
+8679507: mip =   3.620000000e+02 >=   3.320000000e+02   8.3% (16775; 14408)
+8714677: mip =   3.620000000e+02 >=   3.320000000e+02   8.3% (16777; 14559)
+8750779: mip =   3.620000000e+02 >=   3.320000000e+02   8.3% (16803; 14687)
+8786057: mip =   3.620000000e+02 >=   3.320000000e+02   8.3% (16810; 14812)
+8820659: mip =   3.620000000e+02 >=   3.320000000e+02   8.3% (16808; 14933)
+8854710: mip =   3.620000000e+02 >=   3.320000000e+02   8.3% (16795; 15118)
+8888422: mip =   3.620000000e+02 >=   3.330000000e+02   8.0% (16792; 15301)
Time used: 1200.8 secs.  Memory used: 163.7 Mb.
+8928133: mip =   3.620000000e+02 >=   3.330000000e+02   8.0% (16936; 15408)
+8967509: mip =   3.620000000e+02 >=   3.330000000e+02   8.0% (17014; 15508)
+9002749: mip =   3.620000000e+02 >=   3.330000000e+02   8.0% (17043; 15617)
+9039500: mip =   3.620000000e+02 >=   3.330000000e+02   8.0% (17076; 15734)
+9076750: mip =   3.620000000e+02 >=   3.330000000e+02   8.0% (17105; 15848)
+9113085: mip =   3.620000000e+02 >=   3.330000000e+02   8.0% (17124; 15949)
+9150639: mip =   3.620000000e+02 >=   3.330000000e+02   8.0% (17208; 16045)
+9186009: mip =   3.620000000e+02 >=   3.330000000e+02   8.0% (17221; 16173)
+9220905: mip =   3.620000000e+02 >=   3.330000000e+02   8.0% (17226; 16290)
+9257698: mip =   3.620000000e+02 >=   3.330000000e+02   8.0% (17257; 16355)
+9292414: mip =   3.620000000e+02 >=   3.330000000e+02   8.0% (17237; 16513)
+9326129: mip =   3.620000000e+02 >=   3.330000000e+02   8.0% (17214; 16690)
Time used: 1261.0 secs.  Memory used: 170.1 Mb.
+9361067: mip =   3.620000000e+02 >=   3.340000000e+02   7.7% (17248; 16747)
+9400640: mip =   3.620000000e+02 >=   3.340000000e+02   7.7% (17340; 16829)
+9441396: mip =   3.620000000e+02 >=   3.340000000e+02   7.7% (17388; 16905)
+9479570: mip =   3.620000000e+02 >=   3.340000000e+02   7.7% (17426; 16983)
+9517735: mip =   3.620000000e+02 >=   3.340000000e+02   7.7% (17480; 17044)
+9553690: mip =   3.620000000e+02 >=   3.340000000e+02   7.7% (17515; 17113)
+9587312: mip =   3.620000000e+02 >=   3.340000000e+02   7.7% (17551; 17183)
+9623056: mip =   3.620000000e+02 >=   3.340000000e+02   7.7% (17574; 17256)
+9658330: mip =   3.620000000e+02 >=   3.340000000e+02   7.7% (17558; 17389)
+9692470: mip =   3.620000000e+02 >=   3.340000000e+02   7.7% (17535; 17574)
+9727352: mip =   3.620000000e+02 >=   3.340000000e+02   7.7% (17522; 17741)
+9762079: mip =   3.620000000e+02 >=   3.340000000e+02   7.7% (17516; 17889)
Time used: 1321.0 secs.  Memory used: 176.7 Mb.
+9797777: mip =   3.620000000e+02 >=   3.340000000e+02   7.7% (17518; 18019)
+9833871: mip =   3.620000000e+02 >=   3.340000000e+02   7.7% (17561; 18080)
+9863006: mip =   3.620000000e+02 >=   3.340000000e+02   7.7% (17608; 18117)
+9890904: mip =   3.620000000e+02 >=   3.350000000e+02   7.5% (17614; 18290)
+9918992: mip =   3.620000000e+02 >=   3.350000000e+02   7.5% (17672; 18356)
+9950205: mip =   3.620000000e+02 >=   3.350000000e+02   7.5% (17731; 18442)
+9985894: mip =   3.620000000e+02 >=   3.350000000e+02   7.5% (17807; 18591)
+10020077: mip =   3.620000000e+02 >=   3.350000000e+02   7.5% (17863; 18749)
+10052615: mip =   3.620000000e+02 >=   3.350000000e+02   7.5% (17856; 18876)
+10086257: mip =   3.620000000e+02 >=   3.350000000e+02   7.5% (17862; 18999)
+10115808: mip =   3.620000000e+02 >=   3.350000000e+02   7.5% (17847; 19131)
+10147347: mip =   3.620000000e+02 >=   3.350000000e+02   7.5% (17856; 19214)
Time used: 1381.0 secs.  Memory used: 181.8 Mb.
+10180301: mip =   3.620000000e+02 >=   3.360000000e+02   7.2% (17892; 19295)
+10213562: mip =   3.620000000e+02 >=   3.360000000e+02   7.2% (17964; 19422)
+10250127: mip =   3.620000000e+02 >=   3.360000000e+02   7.2% (18048; 19514)
+10286071: mip =   3.620000000e+02 >=   3.360000000e+02   7.2% (18137; 19586)
+10319716: mip =   3.620000000e+02 >=   3.360000000e+02   7.2% (18226; 19673)
+10354539: mip =   3.620000000e+02 >=   3.360000000e+02   7.2% (18304; 19748)
+10388856: mip =   3.620000000e+02 >=   3.360000000e+02   7.2% (18356; 19854)
+10421959: mip =   3.620000000e+02 >=   3.360000000e+02   7.2% (18420; 19949)
+10456215: mip =   3.620000000e+02 >=   3.360000000e+02   7.2% (18443; 20093)
+10492389: mip =   3.620000000e+02 >=   3.360000000e+02   7.2% (18513; 20201)
+10526885: mip =   3.620000000e+02 >=   3.360000000e+02   7.2% (18569; 20335)
+10561623: mip =   3.620000000e+02 >=   3.360000000e+02   7.2% (18632; 20436)
Time used: 1441.0 secs.  Memory used: 189.5 Mb.
+10595553: mip =   3.620000000e+02 >=   3.370000000e+02   6.9% (18654; 20608)
+10631776: mip =   3.620000000e+02 >=   3.370000000e+02   6.9% (18696; 20747)
+10667004: mip =   3.620000000e+02 >=   3.370000000e+02   6.9% (18699; 20916)
+10701373: mip =   3.620000000e+02 >=   3.370000000e+02   6.9% (18682; 21085)
+10736028: mip =   3.620000000e+02 >=   3.370000000e+02   6.9% (18647; 21242)
+10770832: mip =   3.620000000e+02 >=   3.370000000e+02   6.9% (18632; 21386)
+10802101: mip =   3.620000000e+02 >=   3.370000000e+02   6.9% (18588; 21576)
+10833633: mip =   3.620000000e+02 >=   3.370000000e+02   6.9% (18553; 21747)
+10864929: mip =   3.620000000e+02 >=   3.370000000e+02   6.9% (18500; 21959)
+10895053: mip =   3.620000000e+02 >=   3.370000000e+02   6.9% (18415; 22206)
+10926273: mip =   3.620000000e+02 >=   3.370000000e+02   6.9% (18368; 22415)
+10957041: mip =   3.620000000e+02 >=   3.370000000e+02   6.9% (18308; 22604)
Time used: 1501.0 secs.  Memory used: 192.5 Mb.
+10986973: mip =   3.620000000e+02 >=   3.370000000e+02   6.9% (18225; 22860)
+11016788: mip =   3.620000000e+02 >=   3.370000000e+02   6.9% (18168; 23098)
+11047838: mip =   3.620000000e+02 >=   3.370000000e+02   6.9% (18124; 23300)
+11077901: mip =   3.620000000e+02 >=   3.370000000e+02   6.9% (18088; 23499)
+11110115: mip =   3.620000000e+02 >=   3.370000000e+02   6.9% (18027; 23667)
+11141441: mip =   3.620000000e+02 >=   3.370000000e+02   6.9% (17960; 23883)
+11171391: mip =   3.620000000e+02 >=   3.370000000e+02   6.9% (17929; 24079)
+11202386: mip =   3.620000000e+02 >=   3.370000000e+02   6.9% (17883; 24292)
+11233647: mip =   3.620000000e+02 >=   3.370000000e+02   6.9% (17829; 24563)
+11265821: mip =   3.620000000e+02 >=   3.370000000e+02   6.9% (17776; 24786)
+11298800: mip =   3.620000000e+02 >=   3.380000000e+02   6.6% (17745; 24964)
+11334868: mip =   3.620000000e+02 >=   3.380000000e+02   6.6% (17686; 25230)
Time used: 1561.0 secs.  Memory used: 193.6 Mb.
+11371116: mip =   3.620000000e+02 >=   3.380000000e+02   6.6% (17636; 25472)
+11405942: mip =   3.620000000e+02 >=   3.380000000e+02   6.6% (17604; 25665)
+11439458: mip =   3.620000000e+02 >=   3.380000000e+02   6.6% (17525; 25857)
+11475387: mip =   3.620000000e+02 >=   3.380000000e+02   6.6% (17493; 26013)
+11510643: mip =   3.620000000e+02 >=   3.380000000e+02   6.6% (17449; 26157)
+11545669: mip =   3.620000000e+02 >=   3.380000000e+02   6.6% (17401; 26319)
+11580062: mip =   3.620000000e+02 >=   3.380000000e+02   6.6% (17366; 26463)
+11614641: mip =   3.620000000e+02 >=   3.380000000e+02   6.6% (17317; 26603)
+11648555: mip =   3.620000000e+02 >=   3.380000000e+02   6.6% (17271; 26724)
+11682559: mip =   3.620000000e+02 >=   3.380000000e+02   6.6% (17216; 26866)
+11717725: mip =   3.620000000e+02 >=   3.380000000e+02   6.6% (17193; 27003)
+11752702: mip =   3.620000000e+02 >=   3.380000000e+02   6.6% (17183; 27152)
Time used: 1621.2 secs.  Memory used: 196.8 Mb.
+11784026: mip =   3.620000000e+02 >=   3.380000000e+02   6.6% (17192; 27236)
+11821178: mip =   3.620000000e+02 >=   3.390000000e+02   6.4% (17262; 27365)
+11855022: mip =   3.620000000e+02 >=   3.390000000e+02   6.4% (17267; 27553)
+11887503: mip =   3.620000000e+02 >=   3.390000000e+02   6.4% (17235; 27771)
+11919926: mip =   3.620000000e+02 >=   3.390000000e+02   6.4% (17174; 28003)
+11951407: mip =   3.620000000e+02 >=   3.390000000e+02   6.4% (17108; 28225)
+11981922: mip =   3.620000000e+02 >=   3.390000000e+02   6.4% (17033; 28534)
+12016713: mip =   3.620000000e+02 >=   3.390000000e+02   6.4% (17019; 28754)
+12051378: mip =   3.620000000e+02 >=   3.390000000e+02   6.4% (16972; 28989)
+12086086: mip =   3.620000000e+02 >=   3.390000000e+02   6.4% (16935; 29191)
+12122430: mip =   3.620000000e+02 >=   3.390000000e+02   6.4% (16973; 29287)
+12159599: mip =   3.620000000e+02 >=   3.400000000e+02   6.1% (17024; 29428)
Time used: 1681.2 secs.  Memory used: 199.8 Mb.
+12197300: mip =   3.620000000e+02 >=   3.400000000e+02   6.1% (17083; 29545)
+12233487: mip =   3.620000000e+02 >=   3.400000000e+02   6.1% (17075; 29673)
+12270462: mip =   3.620000000e+02 >=   3.400000000e+02   6.1% (17083; 29805)
+12307627: mip =   3.620000000e+02 >=   3.400000000e+02   6.1% (17101; 29915)
+12342760: mip =   3.620000000e+02 >=   3.400000000e+02   6.1% (17108; 30041)
+12379084: mip =   3.620000000e+02 >=   3.400000000e+02   6.1% (17110; 30152)
+12414960: mip =   3.620000000e+02 >=   3.400000000e+02   6.1% (17123; 30260)
+12449745: mip =   3.620000000e+02 >=   3.400000000e+02   6.1% (17159; 30337)
+12485169: mip =   3.620000000e+02 >=   3.410000000e+02   5.8% (17176; 30523)
+12517725: mip =   3.620000000e+02 >=   3.410000000e+02   5.8% (17125; 30913)
+12547772: mip =   3.620000000e+02 >=   3.410000000e+02   5.8% (17059; 31364)
Time used: 1741.2 secs.  Memory used: 204.6 Mb.
+12577991: mip =   3.620000000e+02 >=   3.410000000e+02   5.8% (17009; 31701)
+12611911: mip =   3.620000000e+02 >=   3.410000000e+02   5.8% (17038; 31926)
+12644994: mip =   3.620000000e+02 >=   3.410000000e+02   5.8% (17021; 32175)
+12679779: mip =   3.620000000e+02 >=   3.410000000e+02   5.8% (17068; 32309)
+12713731: mip =   3.620000000e+02 >=   3.410000000e+02   5.8% (17124; 32439)
+12747819: mip =   3.620000000e+02 >=   3.420000000e+02   5.5% (17162; 32575)
+12781440: mip =   3.620000000e+02 >=   3.420000000e+02   5.5% (17183; 32780)
+12816276: mip =   3.620000000e+02 >=   3.420000000e+02   5.5% (17162; 32956)
+12851038: mip =   3.620000000e+02 >=   3.420000000e+02   5.5% (17120; 33129)
+12884408: mip =   3.620000000e+02 >=   3.420000000e+02   5.5% (17038; 33373)
+12916308: mip =   3.620000000e+02 >=   3.430000000e+02   5.2% (16952; 33803)
+12950070: mip =   3.620000000e+02 >=   3.430000000e+02   5.2% (16898; 34061)
